variable	style  string "hybrid/softcore lj/cut/coul/damp/sf 0.0 8.0 lj/cut/coul/damp/sf/linear 0.0 8.0"
variable	coeffA string "lj/cut/coul/damp/sf"
variable	coeffB string "lj/cut/coul/damp/sf/linear"

units           real
atom_style      full

bond_style      harmonic
angle_style     harmonic
pair_style      ${style}
pair_modify	mix arithmetic
pair_modify	pair lj/cut/coul/damp/sf/linear lambda 0.5

read_data       water_TIP3P.lmp

pair_coeff	1 1 ${coeffA} 0.0000 0.0000 # HW
pair_coeff	1 2 ${coeffB} 0.0000 0.0000 # HW
pair_coeff	2 2 ${coeffA} 0.1520 3.1507 # OW

dump		1 all custom 20 test.lammpstrj id mol type x y z ix iy iz

fix             1 all nve
velocity        all create 298.15 87287
timestep        1.0

neighbor        1.0 bin
neigh_modify    delay 0 every 1 check yes

thermo_style    custom step temp pe evdwl emol elong ecoul
thermo_modify	norm no
thermo          10
run		100
