variable	rc equal 10.0
variable	skin equal 1.0
variable	seed equal 6384
variable	temp equal 300.0
variable	nevery equal 10
variable	nfreq equal 10

units		real
atom_style	full

bond_style	harmonic
angle_style	harmonic
pair_style	hybrid/ee  lj/cut/softcore ${rc}  lj/cut/coul/dsf 0.0 ${rc}
read_data	water_out.lmp
timestep 	1

neighbor	${skin} bin
neigh_modify	delay 0 every 1 check yes

pair_coeff	1 1 lj/cut/softcore 0.1947 3.75
pair_coeff	2 2 lj/cut/softcore 0.0913999975 3.95
pair_coeff	1 2 lj/cut/softcore 0.1334000731 3.85
pair_coeff	1 3 lj/cut/softcore 0.0	1.875 
pair_coeff	1 4 lj/cut/softcore 0.1720868095 3.45035005
pair_coeff	2 3 lj/cut/softcore 0.0	1.975
pair_coeff	2 4 lj/cut/softcore 0.1179064868 3.55035005

pair_coeff	3 3 lj/cut/coul/dsf 0.0 0.0
pair_coeff	4 4 lj/cut/coul/dsf 0.1521 3.1507
pair_coeff	3 4 lj/cut/coul/dsf 0.0 1.57535

delete_bonds    all bond 1
delete_bonds    all angle 1
delete_bonds    all bond 2
delete_bonds    all angle 2
#neigh_modify    exclude molecule/intra all

pair_modify     pair lj/cut/softcore alpha 0.5 n 1 p 1 link 1 3 link 1 4 link 2 3 link 2 4 unlink 1 1 unlink 2 2 unlink 1 2  set_grid 16 0.0 0.05 0.1 0.2 0.3 0.4 0.5 0.6 0.65 0.7 0.75 0.8 0.85 0.9 0.95 1.0

fix		1 all rigid/nvt/small molecule temp 300 300 100
#run		1000
#reset_timestep  0
fix		2 all softcore/ee 5 1 123 300 dump 50 ee.dat
compute         E all softcore/grid

thermo_modify	norm no

thermo		50

thermo_style	custom f_2 step temp pe press c_E[*]

run		3000000
