variable	rc equal 10.0
variable	skin equal 1.0
variable	seed equal 6384
variable	temp equal 300.0
variable	nevery equal 10
variable	nfreq equal 10
variable    softcore string lj/cut/softcore
units		real
atom_style	full

bond_style	harmonic
angle_style	harmonic
pair_style	hybrid/softcore ${softcore} ${rc} lj/cut/coul/dsf 0.0 ${rc}
read_data	water_out.lmp
timestep 	1

neighbor	${skin} bin
neigh_modify	delay 0 every 1 check yes

# Solute-Solute:
pair_coeff	1 1 lj/cut/coul/dsf 0.1947 3.75
pair_coeff	2 2 lj/cut/coul/dsf 0.0913999975 3.95
pair_coeff	1 2 lj/cut/coul/dsf 0.1334000731 3.85

# Solute-Solvent:
pair_coeff	1 3 ${softcore} 0.0	1.875 
pair_coeff	1 4 ${softcore} 0.1720868095 3.45035005
pair_coeff	2 3 ${softcore} 0.0	1.975
pair_coeff	2 4 ${softcore} 0.1179064868 3.55035005

# Solvent-Solvent:
pair_coeff	3 3 lj/cut/coul/dsf 0.0 0.0
pair_coeff	4 4 lj/cut/coul/dsf 0.1521 3.1507
pair_coeff	3 4 lj/cut/coul/dsf 0.0 1.57535

delete_bonds    all bond 1
delete_bonds    all angle 1
delete_bonds    all bond 2
delete_bonds    all angle 2

pair_modify     pair ${softcore} alpha 0.5 n 1 p 1
pair_modify     pair ${softcore} set_grid 16 0.0 0.05 0.1 0.2 0.3 0.4 0.5 0.6 0.65 0.7 0.75 0.8 0.85 0.9 0.95 1.0
pair_modify	tail yes

fix		2 all softcore/ee 5 123 300
fix		1 all rigid/nvt/small molecule temp 300 300 100
compute         E all softcore/grid vdwl

thermo_modify	norm no

thermo		50

compute		eatom all pe/atom
compute		pe all reduce sum c_eatom

compute		vatom all stress/atom thermo_temp virial
compute		p all reduce sum c_vatom[1] c_vatom[2] c_vatom[3]
variable	press equal -(c_p[1]+c_p[2]+c_p[3])/(3*vol)
compute         press all pressure thermo_temp virial
variable	delta_e equal round(10000*(c_pe-c_thermo_pe))
variable	delta_p equal round(10000*(c_press-v_press))

thermo_style	custom step f_2[*] temp pe c_pe v_delta_e c_press v_press v_delta_p #c_E[*]

run		200
