variable	rc equal 10.0
variable	skin equal 1.0
variable	seed equal 6384
variable	temp equal 300.0
variable	nevery equal 10
variable	nfreq equal 10

units		real
atom_style	full

bond_style	harmonic
angle_style	harmonic
pair_style	hybrid/ee  lj/cut/softcore ${rc} lj/cut/coul/long ${rc}
#pair_style	hybrid lj/cut/coul/long ${rc} lj/cut ${rc}
kspace_style 		pppm 1e-4
pair_modify	mix arithmetic

read_data	water_benzene_npt.lmp

timestep 	4

neighbor	${skin} bin
neigh_modify	delay 0 every 1 check yes

pair_coeff	1 1 lj/cut/softcore 0.100354 3.695
pair_coeff	1 2 lj/cut/softcore 0.0 1.8475
pair_coeff	1 3 lj/cut/softcore 0.1235469 3.42285

#pair_coeff	1 1 lj/cut 0.100354 3.695
#pair_coeff	1 2 lj/cut 0.0 1.8475
#pair_coeff	1 3 lj/cut 0.1235469 3.42285


pair_coeff	2 2 lj/cut/coul/long 0.0 0.0
pair_coeff	3 3 lj/cut/coul/long 0.1521 3.1507
pair_coeff	2 3 lj/cut/coul/long 0.0 1.57535

delete_bonds    all bond 1
delete_bonds    all angle 1
delete_bonds    all bond 2
delete_bonds    all angle 2
#neigh_modify    exclude molecule all

pair_modify     pair lj/cut/softcore alpha 0.5 n 1 p 1 set_grid 16 0.0 0.05 0.1 0.2 0.3 0.4 0.5 0.6 0.65 0.7 0.75 0.8 0.85 0.9 0.95 1.0
#pair_modify	pair lj/cut compute no
fix		1 all rigid/nve/small molecule
#fix		hmc all hmc ${nevery} ${seed} ${temp} 1
fix		2 all softcore/ee 5 123 298
compute         E all softcore/grid
#compute		state all softcore/state

	

thermo_modify	norm no

thermo		5

thermo_style	custom step f_2[*] temp pe ke etotal press c_E[*]

#run_style	ee/softcore ${nevery} ${seed} ${temp} ${nfreq}

run		10000
