#variable	model string lj/cut/softcore/old
variable	rc equal 10.0
variable	skin equal 1.0
variable	Seed equal 6384
units		real
atom_style	full
bond_style	harmonic
angle_style	harmonic
pair_style	hybrid/softcore lj/sf/coul/sf 10.0 ${model} 10.0

read_data	water_vol.lmp

timestep 	0.5

neighbor	${skin} bin
neigh_modify	delay 0 every 1

pair_coeff	3 3 lj/sf/coul/sf 0.0 0.0
pair_coeff	4 4 lj/sf/coul/sf 0.1521 3.1507
pair_coeff	3 4 lj/sf/coul/sf 0.0 1.57535


pair_coeff      1 1 lj/sf/coul/sf 0.0 0.0
pair_coeff	2 2 lj/sf/coul/sf 0.0 0.0
pair_coeff	1 2 lj/sf/coul/sf 0.0 0.0


pair_coeff      1 3 ${model}  0.0 1.875
pair_coeff      1 4 ${model}  0.1720868 3.45035
pair_coeff      2 3 ${model}  0.0 1.975
pair_coeff      2 4 ${model}  0.1179064 3.55035

delete_bonds    all bond 1
delete_bonds    all angle 1
delete_bonds    all bond 2
delete_bonds    all angle 2

pair_modify     pair ${model} alpha 0.5 n 1 p 1 lambda 0.0
pair_modify	pair ${model} set_grid 16 0.0 0.05 0.1 0.2 0.3 0.4 0.5 0.6 0.65 0.7 0.75 0.8 0.85 0.9 0.95 1.0

group		propane type 1 2
group		water type 3 4
fix		1 propane rigid/nvt/small molecule temp 300.0 300.0 50.0
fix		2 water rigid/nvt/small molecule temp 300.0 300.0 50.0
compute         Esoftcore all softcore/grid 

thermo_style	custom step temp pe ke etotal press
thermo_modify	norm no

#thermo		100
#run		2000000
thermo_style	custom step temp pe ke etotal press c_Esoftcore[*]

#run		10000000
thermo 1

run 10000
write_data	water_prod_data

